
Starting CP-SAT solver v9.15.6755
Parameters: random_seed: 2026074557 max_time_in_seconds: 2500 log_search_progress: true cp_model_presolve: true linearization_level: 2 num_search_workers: 4 cp_model_probing_level: 2 symmetry_level: 2

Initial satisfaction model '': (model_fingerprint: 0x81566e9381c8d0ff)
#Variables: 724 (598 primary variables)
  - 724 Booleans in [0,1]
#kBoolAnd: 110 (#enforced: 110) (#literals: 330)
#kBoolOr: 110 (#enforced: 110) (#literals: 220)
#kExactlyOne: 87 (#literals: 261)
#kLinear1: 42 (#enforced: 6)
#kLinear2: 336 (#enforced: 336) (#complex_domain: 110)
#kLinear3: 1'600 (#enforced: 6)
#kLinearN: 1'132 (#enforced: 243) (#terms: 9'111)

Starting presolve at 0.00s
  7.22e-04s  0.00e+00d  [DetectDominanceRelations] 
  8.88e-03s  0.00e+00d  [PresolveToFixPoint] #num_loops=3 #num_dual_strengthening=1 
  3.87e-05s  0.00e+00d  [ExtractEncodingFromLinear] #potential_supersets=91 
  2.88e-04s  0.00e+00d  [DetectDuplicateColumns] 
  1.05e-04s  0.00e+00d  [DetectDuplicateConstraints] #duplicates=14 
[Symmetry] Graph for symmetry has 4'810 nodes and 15'248 arcs.
[Symmetry] Symmetry computation done. time: 0.00127048 dtime: 0.00174962
[SAT presolve] num removable Booleans: 220 / 604
[SAT presolve] num trivial clauses: 0
[SAT presolve] [0s] clauses:2'655 literals:7'268 vars:499 one_side_vars:59 simple_definition:1 singleton_clauses:0
[SAT presolve] [0.000236039s] clauses:2'654 literals:7'261 vars:499 one_side_vars:59 simple_definition:1 singleton_clauses:0
[SAT presolve] [0.00064945s] clauses:2'252 literals:6'628 vars:375 one_side_vars:69 simple_definition:37 singleton_clauses:0
  1.16e-04s  0.00e+00d  [DetectDuplicateConstraintsWithDifferentEnforcements] #without_enforcements=1 
  5.42e-03s  2.29e-03d  [Probe] #probed=1'256 #fixed_bools=8 #equiv=7 #new_binary_clauses=652 
  5.10e-04s  3.63e-04d  [MaxClique] Merged 563 constraints with 1'298 literals into 496 constraints with 1'180 literals
  9.22e-04s  0.00e+00d  [DetectDominanceRelations] 
  3.18e-03s  0.00e+00d  [PresolveToFixPoint] #num_loops=1 #num_dual_strengthening=1 
  1.18e-03s  0.00e+00d  [ProcessAtMostOneAndLinear] 
  9.85e-05s  0.00e+00d  [DetectDuplicateConstraints] #duplicates=4 
  9.46e-05s  0.00e+00d  [DetectDuplicateConstraintsWithDifferentEnforcements] 
  2.83e-03s  8.64e-05d  [DetectDominatedLinearConstraints] #relevant_constraints=810 #num_inclusions=430 #num_redundant=8 
  1.31e-04s  0.00e+00d  [DetectDifferentVariables] 
  7.82e-04s  8.30e-05d  [ProcessSetPPC] #relevant_constraints=2'998 #num_inclusions=147 
  2.94e-04s  3.36e-05d  [TransformClausesToExactlyOne] #num_amos=526 #num_clauses=1'690 #num_transformed=2 #num_checked=1'690 
  5.02e-05s  0.00e+00d  [DetectEncodedComplexDomains] 
  3.23e-05s  2.00e-07d  [FindAlmostIdenticalLinearConstraints] #num_tested_pairs=2 
  9.63e-04s  1.37e-03d  [FindBigAtMostOneAndLinearOverlap] 
  1.50e-03s  1.18e-03d  [FindBigVerticalLinearOverlap] #blocks=2 #saved_nz=68 
  3.92e-04s  6.64e-04d  [FindBigHorizontalLinearOverlap] #linears=442 
  3.42e-04s  2.71e-05d  [MergeClauses] #num_collisions=15 #num_merges=15 #num_saved_literals=72 
  9.10e-04s  0.00e+00d  [DetectDominanceRelations] 
  3.21e-03s  0.00e+00d  [PresolveToFixPoint] #num_loops=2 #num_dual_strengthening=1 
  8.85e-04s  0.00e+00d  [DetectDominanceRelations] 
  3.04e-03s  0.00e+00d  [PresolveToFixPoint] #num_loops=1 #num_dual_strengthening=1 
  1.36e-04s  0.00e+00d  [DetectDuplicateColumns] 
  8.81e-05s  0.00e+00d  [DetectDuplicateConstraints] 
[Symmetry] Graph for symmetry has 4'337 nodes and 13'451 arcs.
[Symmetry] Symmetry computation done. time: 0.00101736 dtime: 0.00134449
[SAT presolve] num removable Booleans: 93 / 471
[SAT presolve] num trivial clauses: 0
[SAT presolve] [0s] clauses:2'189 literals:6'436 vars:447 one_side_vars:148 simple_definition:59 singleton_clauses:0
[SAT presolve] [0.000248327s] clauses:2'187 literals:6'266 vars:447 one_side_vars:173 simple_definition:77 singleton_clauses:0
[SAT presolve] [0.000376126s] clauses:2'107 literals:6'102 vars:438 one_side_vars:190 simple_definition:53 singleton_clauses:0
  1.47e-04s  0.00e+00d  [DetectDuplicateConstraintsWithDifferentEnforcements] 
  5.81e-03s  2.03e-03d  [Probe] #probed=1'260 #new_binary_clauses=503 
  4.41e-04s  3.39e-04d  [MaxClique] Merged 488 constraints with 1'094 literals into 475 constraints with 1'090 literals
  9.02e-04s  0.00e+00d  [DetectDominanceRelations] 
  3.08e-03s  0.00e+00d  [PresolveToFixPoint] #num_loops=1 #num_dual_strengthening=1 
  1.10e-03s  0.00e+00d  [ProcessAtMostOneAndLinear] 
  9.49e-05s  0.00e+00d  [DetectDuplicateConstraints] 
  8.69e-05s  0.00e+00d  [DetectDuplicateConstraintsWithDifferentEnforcements] 
  3.69e-03s  9.31e-05d  [DetectDominatedLinearConstraints] #relevant_constraints=799 #num_inclusions=468 
  1.25e-04s  0.00e+00d  [DetectDifferentVariables] 
  7.77e-04s  7.32e-05d  [ProcessSetPPC] #relevant_constraints=2'985 #num_inclusions=91 
  2.98e-04s  3.22e-05d  [TransformClausesToExactlyOne] #num_amos=475 #num_clauses=1'661 #num_checked=1'661 
  1.39e-04s  0.00e+00d  [DetectEncodedComplexDomains] 
  3.68e-05s  0.00e+00d  [FindAlmostIdenticalLinearConstraints] 
  9.29e-04s  1.25e-03d  [FindBigAtMostOneAndLinearOverlap] 
  1.42e-03s  1.13e-03d  [FindBigVerticalLinearOverlap] 
  3.81e-04s  6.64e-04d  [FindBigHorizontalLinearOverlap] #linears=442 
  3.38e-04s  2.60e-05d  [MergeClauses] #num_collisions=71 #num_merges=71 #num_saved_literals=212 
  8.97e-04s  0.00e+00d  [DetectDominanceRelations] 
  3.10e-03s  0.00e+00d  [PresolveToFixPoint] #num_loops=1 #num_dual_strengthening=1 
  9.00e-04s  0.00e+00d  [DetectDominanceRelations] 
  3.05e-03s  0.00e+00d  [PresolveToFixPoint] #num_loops=1 #num_dual_strengthening=1 
  1.31e-04s  0.00e+00d  [DetectDuplicateColumns] 
  8.83e-05s  0.00e+00d  [DetectDuplicateConstraints] 
[Symmetry] Graph for symmetry has 4'196 nodes and 12'881 arcs.
[Symmetry] Symmetry computation done. time: 0.000964846 dtime: 0.00127044
[SAT presolve] num removable Booleans: 84 / 462
[SAT presolve] num trivial clauses: 0
[SAT presolve] [0s] clauses:2'084 literals:6'048 vars:438 one_side_vars:191 simple_definition:53 singleton_clauses:0
[SAT presolve] [0.000226705s] clauses:2'084 literals:6'048 vars:438 one_side_vars:191 simple_definition:53 singleton_clauses:0
[SAT presolve] [0.00029791s] clauses:2'084 literals:6'048 vars:438 one_side_vars:191 simple_definition:53 singleton_clauses:0
  1.99e-04s  0.00e+00d  [DetectDuplicateConstraintsWithDifferentEnforcements] 
  5.78e-03s  2.02e-03d  [Probe] #probed=1'260 #new_binary_clauses=503 
  4.33e-04s  3.26e-04d  [MaxClique] 
  9.21e-04s  0.00e+00d  [DetectDominanceRelations] 
  3.12e-03s  0.00e+00d  [PresolveToFixPoint] #num_loops=1 #num_dual_strengthening=1 
  1.10e-03s  0.00e+00d  [ProcessAtMostOneAndLinear] 
  1.09e-04s  0.00e+00d  [DetectDuplicateConstraints] 
  9.32e-05s  0.00e+00d  [DetectDuplicateConstraintsWithDifferentEnforcements] 
  3.73e-03s  9.31e-05d  [DetectDominatedLinearConstraints] #relevant_constraints=799 #num_inclusions=468 
  1.30e-04s  0.00e+00d  [DetectDifferentVariables] 
  7.87e-04s  7.29e-05d  [ProcessSetPPC] #relevant_constraints=2'980 #num_inclusions=86 
  3.06e-04s  3.22e-05d  [TransformClausesToExactlyOne] #num_amos=470 #num_clauses=1'661 #num_checked=1'661 
  1.45e-04s  0.00e+00d  [DetectEncodedComplexDomains] 
  4.23e-05s  8.00e-08d  [FindAlmostIdenticalLinearConstraints] #num_tested_pairs=1 
  9.34e-04s  1.26e-03d  [FindBigAtMostOneAndLinearOverlap] 
  1.39e-03s  1.13e-03d  [FindBigVerticalLinearOverlap] 
  3.86e-04s  6.64e-04d  [FindBigHorizontalLinearOverlap] #linears=442 
  3.41e-04s  2.60e-05d  [MergeClauses] #num_collisions=71 #num_merges=71 #num_saved_literals=212 
  9.72e-04s  0.00e+00d  [DetectDominanceRelations] 
  3.21e-03s  0.00e+00d  [PresolveToFixPoint] #num_loops=1 #num_dual_strengthening=1 
  2.12e-05s  0.00e+00d  [MergeNoOverlap] 
  2.04e-05s  0.00e+00d  [MergeNoOverlap2D] 

Presolve summary:
  - 33 affine relations were detected.
  - rule 'TODO dual: only one blocking constraint?' was applied 795 times.
  - rule 'TODO linear inclusion: superset is equality' was applied 505 times.
  - rule 'affine: new relation' was applied 33 times.
  - rule 'at_most_one: removed literals' was applied 41 times.
  - rule 'at_most_one: size one' was applied 40 times.
  - rule 'at_most_one: transformed into max clique' was applied 2 times.
  - rule 'bool_or: implications' was applied 82 times.
  - rule 'bool_or: only one literal' was applied 12 times.
  - rule 'bool_or: removed enforcement literal' was applied 573 times.
  - rule 'clauses: transformed into exactly one' was applied 2 times.
  - rule 'deductions: 688 stored' was applied 1 time.
  - rule 'duplicate: merged rhs of linear constraint' was applied 17 times.
  - rule 'duplicate: removed constraint' was applied 18 times.
  - rule 'duplicate: removed enforced constraint' was applied 1 time.
  - rule 'enforcement: false literal' was applied 48 times.
  - rule 'enforcement: true literal' was applied 16 times.
  - rule 'exactly_one: removed literals' was applied 28 times.
  - rule 'exactly_one: satisfied' was applied 13 times.
  - rule 'exactly_one: singleton' was applied 2 times.
  - rule 'exactly_one: size two' was applied 26 times.
  - rule 'exactly_one: x and not(x)' was applied 4 times.
  - rule 'incompatible linear: add implication' was applied 114 times.
  - rule 'linear + amo: empty after processing' was applied 5 times.
  - rule 'linear + amo: extracted enforcement literal' was applied 52 times.
  - rule 'linear + amo: trivial linear constraint' was applied 2 times.
  - rule 'linear inclusion: redundant containing constraint' was applied 2 times.
  - rule 'linear inclusion: redundant included constraint' was applied 5 times.
  - rule 'linear inclusion: sparsify superset' was applied 1 time.
  - rule 'linear matrix: common vertical rectangle' was applied 2 times.
  - rule 'linear1: x in domain' was applied 36 times.
  - rule 'linear2: convert ax + by != cte to clauses' was applied 254 times.
  - rule 'linear2: convert implied ax + by == cte to clauses' was applied 118 times.
  - rule 'linear2: implied ax + by = cte has only one solution' was applied 8 times.
  - rule 'linear: always true' was applied 421 times.
  - rule 'linear: coefficient strengthening by increasing it' was applied 2 times.
  - rule 'linear: empty' was applied 1 time.
  - rule 'linear: extracted at most one (max)' was applied 1 time.
  - rule 'linear: fixed or dup variables' was applied 879 times.
  - rule 'linear: negative clause' was applied 1'292 times.
  - rule 'linear: negative reified and' was applied 68 times.
  - rule 'linear: never in domain' was applied 5 times.
  - rule 'linear: positive at most one' was applied 44 times.
  - rule 'linear: positive equal one' was applied 1 time.
  - rule 'linear: reduced variable domains' was applied 3 times.
  - rule 'linear: remapped using affine relations' was applied 22 times.
  - rule 'new_bool: integer encoding' was applied 6 times.
  - rule 'presolve: 100 unused variables removed.' was applied 1 time.
  - rule 'presolve: iteration' was applied 3 times.
  - rule 'probing: bool_or reduced to implication' was applied 47 times.
  - rule 'probing: simplified clauses' was applied 18 times.
  - rule 'setppc: bool_or in at_most_one' was applied 9 times.
  - rule 'setppc: removed dominated constraints' was applied 82 times.
  - rule 'variables: add encoding constraint' was applied 6 times.

Presolved satisfaction model '': (model_fingerprint: 0xd394fbdfe7249c9a)
#Variables: 464 (401 primary variables)
  - 462 Booleans in [0,1]
  - 2 in [0,2]
#kAtMostOne: 47 (#literals: 212)
#kBoolAnd: 259 (#enforced: 259) (#literals: 682)
#kBoolAndClauses: 71 (#enforced: 71 #multi: 71) (#literals: 354)
#kBoolOr: 1'519 (#literals: 4'636)
#kExactlyOne: 50 (#literals: 205)
#kLinear1: 12 (#enforced: 12)
#kLinearN: 799 (#enforced: 114) (#terms: 5'524)
[Symmetry] Graph for symmetry has 3'928 nodes and 12'881 arcs.
[Symmetry] Symmetry computation done. time: 0.000881903 dtime: 0.00125436

Preloading model.
#Model   0.10s var:464/464 constraints:2757/2757

Starting search at 0.10s with 4 workers.
3 full problem subsolvers: [default_lp, max_lp, no_lp]
1 first solution subsolver: [fj]
2 interleaved subsolvers: [feasibility_pump, rins/rens]
2 helper subsolvers: [neighborhood_helper, synchronization_agent]

#Model  14.08s var:463/464 constraints:2740/2757
#Model  19.67s var:462/464 constraints:2738/2757
#Model  29.80s var:461/464 constraints:2736/2757
#Model 136.79s var:459/464 constraints:2716/2757
#Model 137.45s var:456/464 constraints:2698/2757
#Model 168.16s var:455/464 constraints:2681/2757
#Model 203.16s var:454/464 constraints:2679/2757
#Model 214.33s var:453/464 constraints:2660/2757
#Model 232.29s var:452/464 constraints:2636/2757
#Model 232.42s var:448/464 constraints:2593/2757
#Model 298.95s var:445/464 constraints:2590/2757
#Model 440.12s var:444/464 constraints:2569/2757
#Model 491.78s var:443/464 constraints:2567/2757
#Model 496.62s var:442/464 constraints:2552/2757
#Model 505.67s var:441/464 constraints:2533/2757
#Model 525.28s var:440/464 constraints:2513/2757
#Model 528.29s var:439/464 constraints:2496/2757
#Model 529.41s var:433/464 constraints:2410/2757
#Model 529.45s var:409/464 constraints:2014/2757
#Model 530.53s var:405/464 constraints:1980/2757
#Model 530.64s var:404/464 constraints:1959/2757
#Model 531.21s var:403/464 constraints:1947/2757
#Model 531.29s var:400/464 constraints:1917/2757
#Done  531.33s no_lp

Task timing                   n [     min,      max]      avg      dev     time         n [     min,      max]      avg      dev    dtime
        'default_lp':         1 [   8.85m,    8.85m]    8.85m   0.00ns    8.85m         2 [  2.35ms,    8.51m]    4.25m    4.25m    8.51m
  'feasibility_pump':      2634 [876.24us, 138.07ms]   1.60ms   2.68ms    4.22s      2633 [279.97us, 119.94ms] 327.58us   2.33ms 862.51ms
                'fj':      2023 [109.63ms, 216.03ms] 130.15ms   7.79ms    4.39m      2023 [100.00ms, 100.15ms] 100.02ms  16.43us    3.37m
            'max_lp':         1 [   8.85m,    8.85m]    8.85m   0.00ns    8.85m         2 [ 71.04ms,   11.33m]    5.67m    5.67m   11.33m
             'no_lp':         1 [   8.85m,    8.85m]    8.85m   0.00ns    8.85m         2 [  1.87ms,   15.70m]    7.85m    7.85m   15.70m
         'rins/rens':      2452 [ 23.15ms, 176.30ms] 107.40ms  39.26ms    4.39m      2452 [301.53us, 100.27ms]  68.15ms  36.88ms    2.79m

Search stats     Bools  Conflicts   Branches  Restarts  BacktrackToRoot  Backtrack   BoolPropag  IntegerPropag
  'default_lp':    462     56'197  3'747'028       329          600'074    829'710   37'231'366     46'914'667
      'max_lp':    462     33'587  5'703'432       194          879'544  1'127'682   55'929'010     76'811'304
       'no_lp':    462  5'730'854  8'726'554    19'087          266'288  5'993'011  526'035'715    140'468'935

SAT formula      Fixed  Equiv  Total  VarLeft  BinaryClauses  PermanentClauses  TemporaryClauses
  'default_lp':     23      5    462      434          2'060            17'636             5'825
      'max_lp':     25      5    462      432          2'196            13'749             2'162
       'no_lp':    146     10    462      306          2'928            22'358             3'576

SAT stats        ClassicMinim  LitRemoved  LitRemovedBinary   LitLearned  LitForgotten   Subsumed
  'default_lp':        47'953     429'081           278'157    1'215'050       525'947     24'252
      'max_lp':        27'208     223'921           151'663      597'084       171'451     15'488
       'no_lp':     5'076'148  73'847'690        29'886'110  126'198'514    96'910'922  1'617'990

Vivification     Clauses  Decisions  LitTrue  Subsumed  LitRemoved  DecisionReused  Conflicts
  'default_lp':  682'387  3'587'859        2     7'956      80'879         217'670        845
      'max_lp':  981'463  5'548'865        2     9'851     100'428         276'183      1'058
       'no_lp':  233'449  1'943'530        2    16'034     215'935          74'430      1'500

Clause deletion    at_true  l_and_not(l)  to_binary  sub_conflict  sub_extra  sub_decisions  sub_eager  sub_vivify  sub_probing  sub_inpro  blocked  eliminated  forgotten    promoted  conflicts
    'default_lp':    5'931            67         36        23'850        146            875        402       7'956        2'136      5'134        0           0     17'865     105'548     56'197
        'max_lp':    7'364            64         38        15'348         85            410        140       9'851        2'626      6'231        0           0      6'966      56'009     33'587
         'no_lp':   61'839           144        171     1'587'757     12'304         65'700     30'233      16'034       11'407     87'230        0           0  3'833'736  13'046'971  5'730'854

Lp stats         Component  Iterations  AddedCuts  OPTIMAL  DUAL_F.  DUAL_U.
  'default_lp':          1   6'372'290     21'823   67'102        1   39'565
      'max_lp':          1   2'873'456     22'310    9'490   18'208    8'363

Lp dimension        Final dimension of first component
  'default_lp':    280 rows, 329 columns, 2759 entries
      'max_lp':  1159 rows, 464 columns, 17250 entries

Lp debug         CutPropag  CutEqPropag  Adjust  Overflow      Bad  BadScaling
  'default_lp':          0           13  39'565         0  654'584           0
      'max_lp':          0            6   8'361         0  634'772           0

Lp pool          Constraints  Updates  Simplif  Merged  Shortened  Split  Strengthened      Cuts/Call
  'default_lp':       10'584    4'637   21'498       0     21'890  1'694             0  21'823/34'731
      'max_lp':       12'373    9'461   29'972       3     29'344  4'250           716  22'310/39'072

Lp Cut            default_lp  max_lp
          CG_FF:         254      40
           CG_K:         134       -
          CG_KL:          63       -
           CG_R:         245      22
          CG_RB:           6       1
         CG_RBP:           1       -
         Clique:           -      96
             IB:          46       2
       MIR_1_FF:         130     357
        MIR_1_K:          17       8
       MIR_1_KL:          79      11
        MIR_1_R:         121     163
       MIR_1_RB:           -       1
      MIR_1_RLT:           -   1'897
       MIR_2_FF:         153     200
        MIR_2_K:          50      35
       MIR_2_KL:          56      16
        MIR_2_R:         203     197
       MIR_2_RB:           -       1
       MIR_3_FF:          75      50
        MIR_3_K:          14       5
       MIR_3_KL:          16       5
        MIR_3_R:          84      75
       MIR_3_RB:           6       1
      MIR_3_RBP:           3       1
       MIR_4_FF:          19      11
        MIR_4_K:           8       3
       MIR_4_KL:           6       1
        MIR_4_R:          50      55
       MIR_4_RB:           1       4
       MIR_5_FF:           3       3
        MIR_5_K:           1       1
       MIR_5_KL:           1       1
        MIR_5_R:          26      52
       MIR_5_RB:           3       1
      MIR_5_RBP:           1       -
       MIR_6_FF:           3       3
        MIR_6_K:           1       1
        MIR_6_R:          29      42
       MIR_6_RB:           2       2
   ZERO_HALF_FF:         106     218
    ZERO_HALF_K:          27       1
   ZERO_HALF_KL:          21       -
    ZERO_HALF_R:      19'749  18'702
   ZERO_HALF_RB:           5       -
  ZERO_HALF_RBP:           5      25

LNS stats       Improv/Calls  Closed  Difficulty  TimeLimit
  'rins/rens':     2452/2452     50%    8.54e-01       0.10

LS stats                                    Batches  Restarts/Perturbs   LinMoves   GenMoves  CompoundMoves  Bactracks  WeightUpdates  ScoreComputed
                             'fj_restart':      203                 38  6'292'500          0              0          0      5'211'246      3'993'012
                    'fj_restart_compound':      100                 34          0    981'863         75'629    453'061          2'151     16'691'476
                'fj_restart_compound_obj':       75                 27          0    714'087         59'160    327'424          1'547     12'500'245
            'fj_restart_compound_perturb':      151                 40          0  1'477'156         98'822    689'092          3'425     25'186'854
        'fj_restart_compound_perturb_obj':      139                 42          0  1'333'956         96'996    618'378          3'129     23'234'965
                       'fj_restart_decay':       93                 40  2'522'354          0              0          0        115'134        839'145
              'fj_restart_decay_compound':       66                 28          0    653'883        112'856    270'443            833     11'022'464
          'fj_restart_decay_compound_obj':       84                 36          0    839'800        144'057    347'763          1'071     14'057'824
      'fj_restart_decay_compound_perturb':       89                 34          0    912'380        156'180    378'024          1'155     14'901'554
  'fj_restart_decay_compound_perturb_obj':      178                 35          0  1'936'233        323'165    806'451          2'225     30'049'605
                   'fj_restart_decay_obj':       95                 34  2'585'072          0              0          0        117'192        857'613
               'fj_restart_decay_perturb':      134                 37  3'670'826          0              0          0        164'747      1'209'032
           'fj_restart_decay_perturb_obj':      196                 22  5'310'954          0              0          0        243'051      1'790'902
                         'fj_restart_obj':      110                 34  3'443'523          0              0          0      2'675'168      2'285'234
                     'fj_restart_perturb':      197                 37  6'224'218          0              0          0      4'738'519      4'040'186
                 'fj_restart_perturb_obj':      113                 33  3'482'427          0              0          0      2'731'707      2'071'585

Solution repositories    Added  Queried  Synchro
    'alternative_path':      0        0        0
      'best_solutions':      0        0        0
   'fj solution hints':    543        0      543
        'lp solutions':    264    2'452      263
                'pump':      0        0

Improving bounds shared    Num  Sym
            'default_lp':   12    0
                'max_lp':    7    0
                 'no_lp':  105    0

Clauses shared    #Exported  #Imported  #BinaryRead  #BinaryTotal
   'default_lp':      1'853     31'223          618         1'503
       'max_lp':      2'220     32'248          717         1'503
        'no_lp':     33'842      3'508        1'503         1'503

LRAT_status: NA
CpSolverResponse summary:
status: INFEASIBLE
objective: NA
best_bound: NA
integers: 344
booleans: 462
conflicts: 5730854
branches: 8726554
propagations: 526035715
integer_propagations: 140468935
restarts: 19087
lp_iterations: 0
walltime: 531.348
usertime: 531.348
deterministic_time: 2502.92
gap_integral: 0

{
  "board_size": 22,
  "parity_proved": 0,
  "target": 34,
  "child_id": 2457,
  "child_count": 2640,
  "partition": "unknown_pair_x_diag_plus_twos_x_diag_minus_twos",
  "build_seconds": 0.07946395874023438,
  "workers": 4,
  "requested_seed": 2026074557,
  "effective_seed": 2026074557,
  "main_diagonal_pair": [
    6,
    13
  ],
  "pair_index": 102,
  "diag_plus_twos": 17,
  "diag_minus_twos": 15,
  "pair_excess": 25,
  "residual_certificate_slack": 87,
  "analytic_minimum_line_defect": 22,
  "analytic_defect_details": {
    "row_costs": {
      "12": 6,
      "13": 3,
      "14": 0,
      "15": 0,
      "16": 0,
      "17": 0
    },
    "column_costs": {
      "12": 6,
      "13": 3,
      "14": 0,
      "15": 0,
      "16": 0,
      "17": 0
    },
    "plus_cost": 0,
    "minus_cost": 22,
    "row_column_minimum": 0
  },
  "maximal_line_constraints": 2455,
  "analytic_infeasible": false,
  "allowed_points": 242,
  "status": "INFEASIBLE",
  "proof_method": "cp_sat_all_lines_with_certificate_profile_cuts",
  "elapsed_seconds": 531.3483526706696,
  "branches": 8726554,
  "conflicts": 5730854
}
